results_rootrelaxation/bin012_090_028.srr.sol
solution status: optimal solution found
objective value:                                   32
_var581_                            0.500000000000001 	(obj:3)
_var708_                            0.500000000000005 	(obj:1)
_var714_                            0.500000000000005 	(obj:1)
_var781_                            0.499999999999993 	(obj:3)
_var798_                            0.250000000000006 	(obj:5)
_var800_                            0.249999999999982 	(obj:3)
_var806_                            0.499999999999994 	(obj:2)
_var807_                            0.499999999999996 	(obj:1)
_var815_                            0.499999999999996 	(obj:4)
_var824_                            0.499999999999995 	(obj:0)
_var836_                            0.249999999999989 	(obj:3)
_var843_                             0.49999999999999 	(obj:3)
_var849_                            0.499999999999991 	(obj:3)
_var860_                            0.499999999999992 	(obj:3)
_var861_                            0.499999999999994 	(obj:2)
_var863_                            0.250000000000006 	(obj:4)
_var881_                            0.499999999999998 	(obj:4)
_var885_                            0.749999999999994 	(obj:4)
_var891_                            0.250000000000013 	(obj:3)
_var898_                            0.250000000000004 	(obj:3)
_var899_                            0.250000000000008 	(obj:3)
_var908_                            0.500000000000001 	(obj:5)
_var911_                            0.249999999999992 	(obj:4)
_var920_                            0.249999999999984 	(obj:3)
_var921_                            0.499999999999999 	(obj:3)
_var930_                            0.249999999999984 	(obj:5)
_var933_                            0.249999999999999 	(obj:4)
